NAME: n50q1000A.tsp, 50 nodes, semilla 0
COMMENT: Problema aleatorio de norma euclidea
DIMENSION: 50
CAPACITY: 1000
EDGE_WEIGHT_TYPE: EUC_2D
NODE_COORD_SECTION
1   0.0000   0.0000
2 220.0000 -461.0000
3 -62.0000 -261.0000
4 298.0000 356.0000
5 -214.0000 -134.0000
6 113.0000 -49.0000
7 -399.0000 354.0000
8 -218.0000 -357.0000
9 422.0000  38.0000
10 -214.0000 446.0000
11 181.0000 498.0000
12 392.0000 477.0000
13 407.0000 156.0000
14 -176.0000 -42.0000
15 -259.0000 382.0000
16 -221.0000 226.0000
17  91.0000 -53.0000
18  88.0000 341.0000
19 -262.0000 408.0000
20 118.0000 112.0000
21 368.0000 -43.0000
22 379.0000  34.0000
23 388.0000 -276.0000
24  85.0000  98.0000
25 -388.0000 -287.0000
26 -433.0000  79.0000
27 -95.0000 130.0000
28   6.0000 -220.0000
29 150.0000 -111.0000
30 -323.0000 -170.0000
31 -235.0000 -168.0000
32 -363.0000 -385.0000
33 -397.0000 429.0000
34 -95.0000 153.0000
35 357.0000 -162.0000
36 273.0000  99.0000
37 -286.0000 -402.0000
38 204.0000 184.0000
39 443.0000 -239.0000
40 -124.0000 248.0000
41 -495.0000 372.0000
42 -347.0000 174.0000
43   5.0000 320.0000
44 -313.0000 -260.0000
45 438.0000 305.0000
46 -164.0000 -476.0000
47 -106.0000  34.0000
48  75.0000 -479.0000
49 462.0000 484.0000
50 -434.0000 125.0000
DISPLAY_DATA_SECTION:
 1  250  250
 2  360   19
 3  219  119
 4  399  428
 5  143  183
 6  306  225
 7   50  427
 8  141   71
 9  461  269
10  143  473
11  340  499
12  446  488
13  453  328
14  162  229
15  120  441
16  139  363
17  295  223
18  294  420
19  119  454
20  309  306
21  434  228
22  439  267
23  444  112
24  292  299
25   56  106
26   33  289
27  202  315
28  253  140
29  325  194
30   88  165
31  132  166
32   68   57
33   51  464
34  202  326
35  428  169
36  386  299
37  107   49
38  352  342
39  471  130
40  188  374
41    2  436
42   76  337
43  252  410
44   93  120
45  469  402
46  168   12
47  197  267
48  287   10
49  481  492
50   33  312
DEMAND_SECTION
1 7
2 10
3 6
4 4
5 -8
6 0
7 5
8 -7
9 4
10 -4
11 1
12 0
13 -3
14 -2
15 4
16 2
17 4
18 4
19 0
20 -3
21 5
22 -5
23 0
24 -4
25 0
26 5
27 0
28 8
29 -3
30 -6
31 0
32 3
33 2
34 2
35 7
36 -6
37 0
38 7
39 -8
40 0
41 -7
42 -6
43 -4
44 2
45 -9
46 -9
47 2
48 -5
49 4
50 1
EOF